c Result of efficient AIG-to-CNF conversion using package CNF
p cnf 423 1732
-2 -3 -121 330 335 0
-2 3 121 330 335 0
2 -335 0
2 3 -121 0
2 -330 0
2 -3 121 0
3 -4 119 0
3 4 -119 0
-3 4 119 0
-3 -4 -119 0
4 -392 -37 0
4 -392 -5 0
4 -5 -37 0
-4 5 37 0
-4 392 37 0
-4 392 5 0
-5 -6 -7 0
-5 6 7 0
5 6 -7 0
5 -6 7 0
6 361 -392 0
6 -361 392 0
-6 -361 -392 0
-6 361 392 0
7 -362 -393 0
7 -393 -8 0
7 -362 -8 0
-7 362 8 0
-7 393 8 0
-7 362 393 0
8 -363 -394 0
8 -394 -9 0
8 -363 -9 0
-8 363 9 0
-8 394 9 0
-8 363 394 0
9 -364 -395 0
9 -395 -10 0
9 -364 -10 0
-9 364 10 0
-9 395 10 0
-9 364 395 0
10 -365 -396 0
10 -396 -11 0
10 -365 -11 0
-10 365 11 0
-10 396 11 0
-10 365 396 0
11 -366 -397 0
11 -397 -12 0
11 -366 -12 0
-11 366 12 0
-11 397 12 0
-11 366 397 0
12 -367 -398 0
12 -398 -13 0
12 -367 -13 0
-12 367 13 0
-12 398 13 0
-12 367 398 0
13 -368 -399 0
13 -399 -14 0
13 -368 -14 0
-13 368 14 0
-13 399 14 0
-13 368 399 0
14 -369 -400 0
14 -400 -15 0
14 -369 -15 0
-14 369 15 0
-14 400 15 0
-14 369 400 0
15 -370 -401 0
15 -401 -16 0
15 -370 -16 0
-15 370 16 0
-15 401 16 0
-15 370 401 0
16 -371 -402 0
16 -402 -17 0
16 -371 -17 0
-16 371 17 0
-16 402 17 0
-16 371 402 0
17 -372 -403 0
17 -403 -18 0
17 -372 -18 0
-17 372 18 0
-17 403 18 0
-17 372 403 0
18 -373 -404 0
18 -404 -19 0
18 -373 -19 0
-18 373 19 0
-18 404 19 0
-18 373 404 0
19 -374 -405 0
19 -405 -20 0
19 -374 -20 0
-19 374 20 0
-19 405 20 0
-19 374 405 0
20 -375 -406 0
20 -406 -21 0
20 -375 -21 0
-20 375 21 0
-20 406 21 0
-20 375 406 0
21 -376 -407 0
21 -407 -22 0
21 -376 -22 0
-21 376 22 0
-21 407 22 0
-21 376 407 0
22 -377 -408 0
22 -408 -23 0
22 -377 -23 0
-22 377 23 0
-22 408 23 0
-22 377 408 0
23 -378 -409 0
23 -409 -24 0
23 -378 -24 0
-23 378 24 0
-23 409 24 0
-23 378 409 0
24 -379 -410 0
24 -410 -25 0
24 -379 -25 0
-24 379 25 0
-24 410 25 0
-24 379 410 0
25 -380 -411 0
25 -411 -26 0
25 -380 -26 0
-25 380 26 0
-25 411 26 0
-25 380 411 0
26 -381 -412 0
26 -412 -27 0
26 -381 -27 0
-26 381 27 0
-26 412 27 0
-26 381 412 0
27 -382 -413 0
27 -413 -28 0
27 -382 -28 0
-27 382 28 0
-27 413 28 0
-27 382 413 0
28 -383 -414 0
28 -414 -29 0
28 -383 -29 0
-28 383 29 0
-28 414 29 0
-28 383 414 0
29 -384 -415 0
29 -415 -30 0
29 -384 -30 0
-29 384 30 0
-29 415 30 0
-29 384 415 0
30 -385 -416 0
30 -416 -31 0
30 -385 -31 0
-30 385 31 0
-30 416 31 0
-30 385 416 0
31 -386 -417 0
31 -417 -32 0
31 -386 -32 0
-31 386 32 0
-31 417 32 0
-31 386 417 0
32 -387 -418 0
32 -418 -33 0
32 -387 -33 0
-32 387 33 0
-32 418 33 0
-32 387 418 0
33 -388 -34 0
33 -419 -34 0
-33 34 0
-33 388 419 0
-34 388 35 0
-34 419 35 0
34 -35 0
34 -388 -419 0
35 -389 -420 0
35 -420 -36 0
35 -389 -36 0
-35 389 36 0
-35 420 36 0
-35 389 420 0
36 -390 -421 0
-36 390 0
-36 421 0
37 -393 -40 0
37 -393 -38 0
37 -38 -40 0
-37 38 40 0
-37 393 40 0
-37 393 38 0
-38 -8 -39 0
-38 8 39 0
38 8 -39 0
38 -8 39 0
39 362 -393 0
39 -362 393 0
-39 -362 -393 0
-39 362 393 0
40 -394 -43 0
40 -394 -41 0
40 -41 -43 0
-40 41 43 0
-40 394 43 0
-40 394 41 0
-41 -9 -42 0
-41 9 42 0
41 9 -42 0
41 -9 42 0
42 363 -394 0
42 -363 394 0
-42 -363 -394 0
-42 363 394 0
43 -395 -46 0
43 -395 -44 0
43 -44 -46 0
-43 44 46 0
-43 395 46 0
-43 395 44 0
-44 -10 -45 0
-44 10 45 0
44 10 -45 0
44 -10 45 0
45 364 -395 0
45 -364 395 0
-45 -364 -395 0
-45 364 395 0
46 -396 -49 0
46 -396 -47 0
46 -47 -49 0
-46 47 49 0
-46 396 49 0
-46 396 47 0
-47 -11 -48 0
-47 11 48 0
47 11 -48 0
47 -11 48 0
48 365 -396 0
48 -365 396 0
-48 -365 -396 0
-48 365 396 0
49 -397 -52 0
49 -397 -50 0
49 -50 -52 0
-49 50 52 0
-49 397 52 0
-49 397 50 0
-50 -12 -51 0
-50 12 51 0
50 12 -51 0
50 -12 51 0
51 366 -397 0
51 -366 397 0
-51 -366 -397 0
-51 366 397 0
52 -398 -55 0
52 -398 -53 0
52 -53 -55 0
-52 53 55 0
-52 398 55 0
-52 398 53 0
-53 -13 -54 0
-53 13 54 0
53 13 -54 0
53 -13 54 0
54 367 -398 0
54 -367 398 0
-54 -367 -398 0
-54 367 398 0
55 -399 -58 0
55 -399 -56 0
55 -56 -58 0
-55 56 58 0
-55 399 58 0
-55 399 56 0
-56 -14 -57 0
-56 14 57 0
56 14 -57 0
56 -14 57 0
57 368 -399 0
57 -368 399 0
-57 -368 -399 0
-57 368 399 0
58 -400 -61 0
58 -400 -59 0
58 -59 -61 0
-58 59 61 0
-58 400 61 0
-58 400 59 0
-59 -15 -60 0
-59 15 60 0
59 15 -60 0
59 -15 60 0
60 369 -400 0
60 -369 400 0
-60 -369 -400 0
-60 369 400 0
61 -401 -64 0
61 -401 -62 0
61 -62 -64 0
-61 62 64 0
-61 401 64 0
-61 401 62 0
-62 -16 -63 0
-62 16 63 0
62 16 -63 0
62 -16 63 0
63 370 -401 0
63 -370 401 0
-63 -370 -401 0
-63 370 401 0
64 -402 -67 0
64 -402 -65 0
64 -65 -67 0
-64 65 67 0
-64 402 67 0
-64 402 65 0
-65 -17 -66 0
-65 17 66 0
65 17 -66 0
65 -17 66 0
66 371 -402 0
66 -371 402 0
-66 -371 -402 0
-66 371 402 0
67 -403 -70 0
67 -403 -68 0
67 -68 -70 0
-67 68 70 0
-67 403 70 0
-67 403 68 0
-68 -18 -69 0
-68 18 69 0
68 18 -69 0
68 -18 69 0
69 372 -403 0
69 -372 403 0
-69 -372 -403 0
-69 372 403 0
70 -404 -73 0
70 -404 -71 0
70 -71 -73 0
-70 71 73 0
-70 404 73 0
-70 404 71 0
-71 -19 -72 0
-71 19 72 0
71 19 -72 0
71 -19 72 0
72 373 -404 0
72 -373 404 0
-72 -373 -404 0
-72 373 404 0
73 -405 -76 0
73 -405 -74 0
73 -74 -76 0
-73 74 76 0
-73 405 76 0
-73 405 74 0
-74 -20 -75 0
-74 20 75 0
74 20 -75 0
74 -20 75 0
75 374 -405 0
75 -374 405 0
-75 -374 -405 0
-75 374 405 0
76 -406 -79 0
76 -406 -77 0
76 -77 -79 0
-76 77 79 0
-76 406 79 0
-76 406 77 0
-77 -21 -78 0
-77 21 78 0
77 21 -78 0
77 -21 78 0
78 375 -406 0
78 -375 406 0
-78 -375 -406 0
-78 375 406 0
79 -407 -82 0
79 -407 -80 0
79 -80 -82 0
-79 80 82 0
-79 407 82 0
-79 407 80 0
-80 -22 -81 0
-80 22 81 0
80 22 -81 0
80 -22 81 0
81 376 -407 0
81 -376 407 0
-81 -376 -407 0
-81 376 407 0
82 -408 -85 0
82 -408 -83 0
82 -83 -85 0
-82 83 85 0
-82 408 85 0
-82 408 83 0
-83 -23 -84 0
-83 23 84 0
83 23 -84 0
83 -23 84 0
84 377 -408 0
84 -377 408 0
-84 -377 -408 0
-84 377 408 0
85 -409 -88 0
85 -409 -86 0
85 -86 -88 0
-85 86 88 0
-85 409 88 0
-85 409 86 0
-86 -24 -87 0
-86 24 87 0
86 24 -87 0
86 -24 87 0
87 378 -409 0
87 -378 409 0
-87 -378 -409 0
-87 378 409 0
88 -410 -91 0
88 -410 -89 0
88 -89 -91 0
-88 89 91 0
-88 410 91 0
-88 410 89 0
-89 -25 -90 0
-89 25 90 0
89 25 -90 0
89 -25 90 0
90 379 -410 0
90 -379 410 0
-90 -379 -410 0
-90 379 410 0
91 -411 -94 0
91 -411 -92 0
91 -92 -94 0
-91 92 94 0
-91 411 94 0
-91 411 92 0
-92 -26 -93 0
-92 26 93 0
92 26 -93 0
92 -26 93 0
93 380 -411 0
93 -380 411 0
-93 -380 -411 0
-93 380 411 0
94 -412 -97 0
94 -412 -95 0
94 -95 -97 0
-94 95 97 0
-94 412 97 0
-94 412 95 0
-95 -27 -96 0
-95 27 96 0
95 27 -96 0
95 -27 96 0
96 381 -412 0
96 -381 412 0
-96 -381 -412 0
-96 381 412 0
97 -413 -100 0
97 -413 -98 0
97 -98 -100 0
-97 98 100 0
-97 413 100 0
-97 413 98 0
-98 -28 -99 0
-98 28 99 0
98 28 -99 0
98 -28 99 0
99 382 -413 0
99 -382 413 0
-99 -382 -413 0
-99 382 413 0
100 -414 -103 0
100 -414 -101 0
100 -101 -103 0
-100 101 103 0
-100 414 103 0
-100 414 101 0
-101 -29 -102 0
-101 29 102 0
101 29 -102 0
101 -29 102 0
102 383 -414 0
102 -383 414 0
-102 -383 -414 0
-102 383 414 0
103 -415 -106 0
103 -415 -104 0
103 -104 -106 0
-103 104 106 0
-103 415 106 0
-103 415 104 0
-104 -30 -105 0
-104 30 105 0
104 30 -105 0
104 -30 105 0
105 384 -415 0
105 -384 415 0
-105 -384 -415 0
-105 384 415 0
106 -416 -109 0
106 -416 -107 0
106 -107 -109 0
-106 107 109 0
-106 416 109 0
-106 416 107 0
-107 -31 -108 0
-107 31 108 0
107 31 -108 0
107 -31 108 0
108 385 -416 0
108 -385 416 0
-108 -385 -416 0
-108 385 416 0
109 -417 -110 0
109 -110 -112 0
109 -417 -112 0
-109 417 112 0
-109 110 112 0
-109 417 110 0
110 32 -111 0
110 -32 111 0
-110 -32 -111 0
-110 32 111 0
111 386 -417 0
111 -386 417 0
-111 -386 -417 0
-111 386 417 0
112 -418 -113 0
112 -113 -115 0
112 -418 -115 0
-112 418 115 0
-112 113 115 0
-112 418 113 0
113 33 -114 0
113 -33 114 0
-113 -33 -114 0
-113 33 114 0
114 387 -418 0
114 -387 418 0
-114 -387 -418 0
-114 387 418 0
115 -388 35 -116 0
115 388 -35 -116 0
115 388 -419 35 0
115 -388 -419 -35 0
-115 -388 419 -35 0
-115 388 -35 116 0
-115 -388 35 116 0
-115 388 419 35 0
-116 -117 118 0
-116 420 117 0
116 -117 -118 0
116 -420 117 0
117 389 -36 0
117 -389 36 0
-117 -389 -36 0
-117 389 36 0
-118 -390 422 0
-118 390 421 0
118 390 -421 0
118 -390 -422 0
-119 -360 -120 0
-119 360 120 0
119 360 -120 0
119 -360 120 0
120 -361 -392 0
120 -392 -7 0
120 -361 -7 0
-120 361 7 0
-120 392 7 0
-120 361 392 0
-121 122 325 0
-121 -122 -325 0
121 -122 325 0
121 122 -325 0
122 -360 -123 0
122 -123 -240 0
122 -360 -240 0
-122 360 240 0
-122 123 240 0
-122 360 123 0
123 124 -155 0
123 -124 155 0
-123 -124 -155 0
-123 124 155 0
124 360 -125 0
124 -360 125 0
-124 -360 -125 0
-124 360 125 0
125 -361 -393 0
125 -393 -126 0
125 -361 -126 0
-125 361 126 0
-125 393 126 0
-125 361 393 0
126 -362 -394 0
126 -394 -127 0
126 -362 -127 0
-126 362 127 0
-126 394 127 0
-126 362 394 0
127 -363 -395 0
127 -395 -128 0
127 -363 -128 0
-127 363 128 0
-127 395 128 0
-127 363 395 0
128 -364 -396 0
128 -396 -129 0
128 -364 -129 0
-128 364 129 0
-128 396 129 0
-128 364 396 0
129 -365 -397 0
129 -397 -130 0
129 -365 -130 0
-129 365 130 0
-129 397 130 0
-129 365 397 0
130 -366 -398 0
130 -398 -131 0
130 -366 -131 0
-130 366 131 0
-130 398 131 0
-130 366 398 0
131 -367 -399 0
131 -399 -132 0
131 -367 -132 0
-131 367 132 0
-131 399 132 0
-131 367 399 0
132 -368 -400 0
132 -400 -133 0
132 -368 -133 0
-132 368 133 0
-132 400 133 0
-132 368 400 0
133 -369 -401 0
133 -401 -134 0
133 -369 -134 0
-133 369 134 0
-133 401 134 0
-133 369 401 0
134 -370 -402 0
134 -402 -135 0
134 -370 -135 0
-134 370 135 0
-134 402 135 0
-134 370 402 0
135 -371 -403 0
135 -403 -136 0
135 -371 -136 0
-135 371 136 0
-135 403 136 0
-135 371 403 0
136 -372 -404 0
136 -404 -137 0
136 -372 -137 0
-136 372 137 0
-136 404 137 0
-136 372 404 0
137 -373 -405 0
137 -405 -138 0
137 -373 -138 0
-137 373 138 0
-137 405 138 0
-137 373 405 0
138 -374 -406 0
138 -406 -139 0
138 -374 -139 0
-138 374 139 0
-138 406 139 0
-138 374 406 0
139 -375 -407 0
139 -407 -140 0
139 -375 -140 0
-139 375 140 0
-139 407 140 0
-139 375 407 0
140 -376 -408 0
140 -408 -141 0
140 -376 -141 0
-140 376 141 0
-140 408 141 0
-140 376 408 0
141 -377 -409 0
141 -409 -142 0
141 -377 -142 0
-141 377 142 0
-141 409 142 0
-141 377 409 0
142 -378 -410 0
142 -410 -143 0
142 -378 -143 0
-142 378 143 0
-142 410 143 0
-142 378 410 0
143 -379 -411 0
143 -411 -144 0
143 -379 -144 0
-143 379 144 0
-143 411 144 0
-143 379 411 0
144 -380 -412 0
144 -412 -145 0
144 -380 -145 0
-144 380 145 0
-144 412 145 0
-144 380 412 0
145 -381 -413 0
145 -413 -146 0
145 -381 -146 0
-145 381 146 0
-145 413 146 0
-145 381 413 0
146 -382 -414 0
146 -414 -147 0
146 -382 -147 0
-146 382 147 0
-146 414 147 0
-146 382 414 0
147 -383 -415 0
147 -415 -148 0
147 -383 -148 0
-147 383 148 0
-147 415 148 0
-147 383 415 0
148 -384 -416 0
148 -416 -149 0
148 -384 -149 0
-148 384 149 0
-148 416 149 0
-148 384 416 0
149 -385 -417 0
149 -417 -150 0
149 -385 -150 0
-149 385 150 0
-149 417 150 0
-149 385 417 0
150 -386 -418 0
150 -418 -151 0
150 -386 -151 0
-150 386 151 0
-150 418 151 0
-150 386 418 0
151 -387 -419 0
151 -419 -152 0
151 -387 -152 0
-151 387 152 0
-151 419 152 0
-151 387 419 0
152 -388 -420 0
152 -420 -153 0
152 -388 -153 0
-152 388 153 0
-152 420 153 0
-152 388 420 0
153 -389 -421 0
153 -421 -154 0
153 -389 -154 0
-153 389 154 0
-153 421 154 0
-153 389 421 0
154 -390 -422 0
-154 390 0
-154 422 0
155 -393 -158 0
155 -393 -156 0
155 -156 -158 0
-155 156 158 0
-155 393 158 0
-155 393 156 0
-156 -126 -157 0
-156 126 157 0
156 126 -157 0
156 -126 157 0
157 361 -393 0
157 -361 393 0
-157 -361 -393 0
-157 361 393 0
158 -394 -161 0
158 -394 -159 0
158 -159 -161 0
-158 159 161 0
-158 394 161 0
-158 394 159 0
-159 -127 -160 0
-159 127 160 0
159 127 -160 0
159 -127 160 0
160 362 -394 0
160 -362 394 0
-160 -362 -394 0
-160 362 394 0
161 -395 -164 0
161 -395 -162 0
161 -162 -164 0
-161 162 164 0
-161 395 164 0
-161 395 162 0
-162 -128 -163 0
-162 128 163 0
162 128 -163 0
162 -128 163 0
163 363 -395 0
163 -363 395 0
-163 -363 -395 0
-163 363 395 0
164 -396 -167 0
164 -396 -165 0
164 -165 -167 0
-164 165 167 0
-164 396 167 0
-164 396 165 0
-165 -129 -166 0
-165 129 166 0
165 129 -166 0
165 -129 166 0
166 364 -396 0
166 -364 396 0
-166 -364 -396 0
-166 364 396 0
167 -397 -170 0
167 -397 -168 0
167 -168 -170 0
-167 168 170 0
-167 397 170 0
-167 397 168 0
-168 -130 -169 0
-168 130 169 0
168 130 -169 0
168 -130 169 0
169 365 -397 0
169 -365 397 0
-169 -365 -397 0
-169 365 397 0
170 -398 -173 0
170 -398 -171 0
170 -171 -173 0
-170 171 173 0
-170 398 173 0
-170 398 171 0
-171 -131 -172 0
-171 131 172 0
171 131 -172 0
171 -131 172 0
172 366 -398 0
172 -366 398 0
-172 -366 -398 0
-172 366 398 0
173 -399 -176 0
173 -399 -174 0
173 -174 -176 0
-173 174 176 0
-173 399 176 0
-173 399 174 0
-174 -132 -175 0
-174 132 175 0
174 132 -175 0
174 -132 175 0
175 367 -399 0
175 -367 399 0
-175 -367 -399 0
-175 367 399 0
176 -400 -179 0
176 -400 -177 0
176 -177 -179 0
-176 177 179 0
-176 400 179 0
-176 400 177 0
-177 -133 -178 0
-177 133 178 0
177 133 -178 0
177 -133 178 0
178 368 -400 0
178 -368 400 0
-178 -368 -400 0
-178 368 400 0
179 -401 -182 0
179 -401 -180 0
179 -180 -182 0
-179 180 182 0
-179 401 182 0
-179 401 180 0
-180 -134 -181 0
-180 134 181 0
180 134 -181 0
180 -134 181 0
181 369 -401 0
181 -369 401 0
-181 -369 -401 0
-181 369 401 0
182 -402 -185 0
182 -402 -183 0
182 -183 -185 0
-182 183 185 0
-182 402 185 0
-182 402 183 0
-183 -135 -184 0
-183 135 184 0
183 135 -184 0
183 -135 184 0
184 370 -402 0
184 -370 402 0
-184 -370 -402 0
-184 370 402 0
185 -403 -188 0
185 -403 -186 0
185 -186 -188 0
-185 186 188 0
-185 403 188 0
-185 403 186 0
-186 -136 -187 0
-186 136 187 0
186 136 -187 0
186 -136 187 0
187 371 -403 0
187 -371 403 0
-187 -371 -403 0
-187 371 403 0
188 -404 -191 0
188 -404 -189 0
188 -189 -191 0
-188 189 191 0
-188 404 191 0
-188 404 189 0
-189 -137 -190 0
-189 137 190 0
189 137 -190 0
189 -137 190 0
190 372 -404 0
190 -372 404 0
-190 -372 -404 0
-190 372 404 0
191 -405 -194 0
191 -405 -192 0
191 -192 -194 0
-191 192 194 0
-191 405 194 0
-191 405 192 0
-192 -138 -193 0
-192 138 193 0
192 138 -193 0
192 -138 193 0
193 373 -405 0
193 -373 405 0
-193 -373 -405 0
-193 373 405 0
194 -406 -197 0
194 -406 -195 0
194 -195 -197 0
-194 195 197 0
-194 406 197 0
-194 406 195 0
-195 -139 -196 0
-195 139 196 0
195 139 -196 0
195 -139 196 0
196 374 -406 0
196 -374 406 0
-196 -374 -406 0
-196 374 406 0
197 -407 -200 0
197 -407 -198 0
197 -198 -200 0
-197 198 200 0
-197 407 200 0
-197 407 198 0
-198 -140 -199 0
-198 140 199 0
198 140 -199 0
198 -140 199 0
199 375 -407 0
199 -375 407 0
-199 -375 -407 0
-199 375 407 0
200 -408 -203 0
200 -408 -201 0
200 -201 -203 0
-200 201 203 0
-200 408 203 0
-200 408 201 0
-201 -141 -202 0
-201 141 202 0
201 141 -202 0
201 -141 202 0
202 376 -408 0
202 -376 408 0
-202 -376 -408 0
-202 376 408 0
203 -409 -206 0
203 -409 -204 0
203 -204 -206 0
-203 204 206 0
-203 409 206 0
-203 409 204 0
-204 -142 -205 0
-204 142 205 0
204 142 -205 0
204 -142 205 0
205 377 -409 0
205 -377 409 0
-205 -377 -409 0
-205 377 409 0
206 -410 -209 0
206 -410 -207 0
206 -207 -209 0
-206 207 209 0
-206 410 209 0
-206 410 207 0
-207 -143 -208 0
-207 143 208 0
207 143 -208 0
207 -143 208 0
208 378 -410 0
208 -378 410 0
-208 -378 -410 0
-208 378 410 0
209 -411 -212 0
209 -411 -210 0
209 -210 -212 0
-209 210 212 0
-209 411 212 0
-209 411 210 0
-210 -144 -211 0
-210 144 211 0
210 144 -211 0
210 -144 211 0
211 379 -411 0
211 -379 411 0
-211 -379 -411 0
-211 379 411 0
212 -412 -215 0
212 -412 -213 0
212 -213 -215 0
-212 213 215 0
-212 412 215 0
-212 412 213 0
-213 -145 -214 0
-213 145 214 0
213 145 -214 0
213 -145 214 0
214 380 -412 0
214 -380 412 0
-214 -380 -412 0
-214 380 412 0
215 -413 -218 0
215 -413 -216 0
215 -216 -218 0
-215 216 218 0
-215 413 218 0
-215 413 216 0
-216 -146 -217 0
-216 146 217 0
216 146 -217 0
216 -146 217 0
217 381 -413 0
217 -381 413 0
-217 -381 -413 0
-217 381 413 0
218 -414 -221 0
218 -414 -219 0
218 -219 -221 0
-218 219 221 0
-218 414 221 0
-218 414 219 0
-219 -147 -220 0
-219 147 220 0
219 147 -220 0
219 -147 220 0
220 382 -414 0
220 -382 414 0
-220 -382 -414 0
-220 382 414 0
221 -415 -224 0
221 -415 -222 0
221 -222 -224 0
-221 222 224 0
-221 415 224 0
-221 415 222 0
-222 -148 -223 0
-222 148 223 0
222 148 -223 0
222 -148 223 0
223 383 -415 0
223 -383 415 0
-223 -383 -415 0
-223 383 415 0
224 -416 -227 0
224 -416 -225 0
224 -225 -227 0
-224 225 227 0
-224 416 227 0
-224 416 225 0
-225 -149 -226 0
-225 149 226 0
225 149 -226 0
225 -149 226 0
226 384 -416 0
226 -384 416 0
-226 -384 -416 0
-226 384 416 0
227 -417 -228 0
227 -228 -230 0
227 -417 -230 0
-227 417 230 0
-227 228 230 0
-227 417 228 0
228 150 -229 0
228 -150 229 0
-228 -150 -229 0
-228 150 229 0
229 385 -417 0
229 -385 417 0
-229 -385 -417 0
-229 385 417 0
230 -418 -231 0
230 -231 -233 0
230 -418 -233 0
-230 418 233 0
-230 231 233 0
-230 418 231 0
231 151 -232 0
231 -151 232 0
-231 -151 -232 0
-231 151 232 0
232 386 -418 0
232 -386 418 0
-232 -386 -418 0
-232 386 418 0
233 -419 -234 0
233 -234 -236 0
233 -419 -236 0
-233 419 236 0
-233 234 236 0
-233 419 234 0
234 152 -235 0
234 -152 235 0
-234 -152 -235 0
-234 152 235 0
235 387 -419 0
235 -387 419 0
-235 -387 -419 0
-235 387 419 0
236 -420 -237 0
236 -237 -239 0
236 -420 -239 0
-236 420 239 0
-236 237 239 0
-236 420 237 0
237 153 -238 0
237 -153 238 0
-237 -153 -238 0
-237 153 238 0
238 388 -420 0
238 -388 420 0
-238 -388 -420 0
-238 388 420 0
239 389 -421 154 0
239 -389 -422 154 0
239 -389 -421 -422 0
-239 421 -154 0
-239 389 -154 0
-239 -389 422 0
-239 389 421 0
240 -361 -241 0
240 -241 -243 0
240 -361 -243 0
-240 361 243 0
-240 241 243 0
-240 361 241 0
241 158 -242 0
241 -158 242 0
-241 -158 -242 0
-241 158 242 0
242 361 -126 0
242 -361 126 0
-242 -361 -126 0
-242 361 126 0
243 -362 -244 0
243 -244 -246 0
243 -362 -246 0
-243 362 246 0
-243 244 246 0
-243 362 244 0
244 161 -245 0
244 -161 245 0
-244 -161 -245 0
-244 161 245 0
245 362 -127 0
245 -362 127 0
-245 -362 -127 0
-245 362 127 0
246 -363 -247 0
246 -247 -249 0
246 -363 -249 0
-246 363 249 0
-246 247 249 0
-246 363 247 0
247 164 -248 0
247 -164 248 0
-247 -164 -248 0
-247 164 248 0
248 363 -128 0
248 -363 128 0
-248 -363 -128 0
-248 363 128 0
249 -364 -250 0
249 -250 -252 0
249 -364 -252 0
-249 364 252 0
-249 250 252 0
-249 364 250 0
250 167 -251 0
250 -167 251 0
-250 -167 -251 0
-250 167 251 0
251 -396 165 0
251 396 -165 0
-251 396 165 0
-251 -396 -165 0
252 -365 -253 0
252 -253 -255 0
252 -365 -255 0
-252 365 255 0
-252 253 255 0
-252 365 253 0
253 170 -254 0
253 -170 254 0
-253 -170 -254 0
-253 170 254 0
254 -397 168 0
254 397 -168 0
-254 397 168 0
-254 -397 -168 0
255 -366 -256 0
255 -256 -258 0
255 -366 -258 0
-255 366 258 0
-255 256 258 0
-255 366 256 0
256 173 -257 0
256 -173 257 0
-256 -173 -257 0
-256 173 257 0
257 -398 171 0
257 398 -171 0
-257 398 171 0
-257 -398 -171 0
258 -367 -259 0
258 -259 -261 0
258 -367 -261 0
-258 367 261 0
-258 259 261 0
-258 367 259 0
259 176 -260 0
259 -176 260 0
-259 -176 -260 0
-259 176 260 0
260 -399 174 0
260 399 -174 0
-260 399 174 0
-260 -399 -174 0
261 -368 -262 0
261 -262 -264 0
261 -368 -264 0
-261 368 264 0
-261 262 264 0
-261 368 262 0
262 179 -263 0
262 -179 263 0
-262 -179 -263 0
-262 179 263 0
263 368 -133 0
263 -368 133 0
-263 -368 -133 0
-263 368 133 0
264 -369 -265 0
264 -265 -267 0
264 -369 -267 0
-264 369 267 0
-264 265 267 0
-264 369 265 0
265 182 -266 0
265 -182 266 0
-265 -182 -266 0
-265 182 266 0
266 369 -134 0
266 -369 134 0
-266 -369 -134 0
-266 369 134 0
267 -370 -268 0
267 -268 -270 0
267 -370 -270 0
-267 370 270 0
-267 268 270 0
-267 370 268 0
268 185 -269 0
268 -185 269 0
-268 -185 -269 0
-268 185 269 0
269 370 -135 0
269 -370 135 0
-269 -370 -135 0
-269 370 135 0
270 -371 -271 0
270 -271 -273 0
270 -371 -273 0
-270 371 273 0
-270 271 273 0
-270 371 271 0
271 188 -272 0
271 -188 272 0
-271 -188 -272 0
-271 188 272 0
272 371 -136 0
272 -371 136 0
-272 -371 -136 0
-272 371 136 0
273 -372 -274 0
273 -274 -276 0
273 -372 -276 0
-273 372 276 0
-273 274 276 0
-273 372 274 0
274 191 -275 0
274 -191 275 0
-274 -191 -275 0
-274 191 275 0
275 372 -137 0
275 -372 137 0
-275 -372 -137 0
-275 372 137 0
276 -373 -277 0
276 -277 -279 0
276 -373 -279 0
-276 373 279 0
-276 277 279 0
-276 373 277 0
277 194 -278 0
277 -194 278 0
-277 -194 -278 0
-277 194 278 0
278 373 -138 0
278 -373 138 0
-278 -373 -138 0
-278 373 138 0
279 -374 -280 0
279 -280 -282 0
279 -374 -282 0
-279 374 282 0
-279 280 282 0
-279 374 280 0
280 197 -281 0
280 -197 281 0
-280 -197 -281 0
-280 197 281 0
281 374 -139 0
281 -374 139 0
-281 -374 -139 0
-281 374 139 0
282 -375 -283 0
282 -283 -285 0
282 -375 -285 0
-282 375 285 0
-282 283 285 0
-282 375 283 0
283 200 -284 0
283 -200 284 0
-283 -200 -284 0
-283 200 284 0
284 375 -140 0
284 -375 140 0
-284 -375 -140 0
-284 375 140 0
285 -376 -286 0
285 -286 -288 0
285 -376 -288 0
-285 376 288 0
-285 286 288 0
-285 376 286 0
286 203 -287 0
286 -203 287 0
-286 -203 -287 0
-286 203 287 0
287 -408 201 0
287 408 -201 0
-287 408 201 0
-287 -408 -201 0
288 -377 -289 0
288 -289 -291 0
288 -377 -291 0
-288 377 291 0
-288 289 291 0
-288 377 289 0
289 206 -290 0
289 -206 290 0
-289 -206 -290 0
-289 206 290 0
290 377 -142 0
290 -377 142 0
-290 -377 -142 0
-290 377 142 0
291 -378 -292 0
291 -292 -294 0
291 -378 -294 0
-291 378 294 0
-291 292 294 0
-291 378 292 0
292 209 -293 0
292 -209 293 0
-292 -209 -293 0
-292 209 293 0
293 378 -143 0
293 -378 143 0
-293 -378 -143 0
-293 378 143 0
294 -379 -295 0
294 -295 -297 0
294 -379 -297 0
-294 379 297 0
-294 295 297 0
-294 379 295 0
295 212 -296 0
295 -212 296 0
-295 -212 -296 0
-295 212 296 0
296 379 -144 0
296 -379 144 0
-296 -379 -144 0
-296 379 144 0
297 -380 -298 0
297 -298 -300 0
297 -380 -300 0
-297 380 300 0
-297 298 300 0
-297 380 298 0
298 215 -299 0
298 -215 299 0
-298 -215 -299 0
-298 215 299 0
299 380 -145 0
299 -380 145 0
-299 -380 -145 0
-299 380 145 0
300 -381 -301 0
300 -301 -303 0
300 -381 -303 0
-300 381 303 0
-300 301 303 0
-300 381 301 0
301 218 -302 0
301 -218 302 0
-301 -218 -302 0
-301 218 302 0
302 381 -146 0
302 -381 146 0
-302 -381 -146 0
-302 381 146 0
303 -382 -304 0
303 -304 -306 0
303 -382 -306 0
-303 382 306 0
-303 304 306 0
-303 382 304 0
304 221 -305 0
304 -221 305 0
-304 -221 -305 0
-304 221 305 0
305 382 -147 0
305 -382 147 0
-305 -382 -147 0
-305 382 147 0
306 -383 -307 0
306 -307 -309 0
306 -383 -309 0
-306 383 309 0
-306 307 309 0
-306 383 307 0
307 224 -308 0
307 -224 308 0
-307 -224 -308 0
-307 224 308 0
308 383 -148 0
308 -383 148 0
-308 -383 -148 0
-308 383 148 0
309 -384 -310 0
309 -310 -312 0
309 -384 -312 0
-309 384 312 0
-309 310 312 0
-309 384 310 0
310 227 -311 0
310 -227 311 0
-310 -227 -311 0
-310 227 311 0
311 384 -149 0
311 -384 149 0
-311 -384 -149 0
-311 384 149 0
312 -385 -313 0
312 -313 -315 0
312 -385 -315 0
-312 385 315 0
-312 313 315 0
-312 385 313 0
313 230 -314 0
313 -230 314 0
-313 -230 -314 0
-313 230 314 0
314 385 -150 0
314 -385 150 0
-314 -385 -150 0
-314 385 150 0
315 -386 -316 0
315 -316 -318 0
315 -386 -318 0
-315 386 318 0
-315 316 318 0
-315 386 316 0
316 233 -317 0
316 -233 317 0
-316 -233 -317 0
-316 233 317 0
317 386 -151 0
317 -386 151 0
-317 -386 -151 0
-317 386 151 0
318 -387 -319 0
318 -319 -321 0
318 -387 -321 0
-318 387 321 0
-318 319 321 0
-318 387 319 0
319 236 -320 0
319 -236 320 0
-319 -236 -320 0
-319 236 320 0
320 387 -152 0
320 -387 152 0
-320 -387 -152 0
-320 387 152 0
321 -388 -322 0
321 -322 -324 0
321 -388 -324 0
-321 322 324 0
-321 388 322 0
-321 388 324 0
322 239 -323 0
322 -239 323 0
-322 -239 -323 0
-322 239 323 0
323 388 -153 0
323 -388 153 0
-323 -388 -153 0
-323 388 153 0
-324 389 422 0
-324 390 -422 0
324 -390 -422 0
324 -389 422 0
-325 -326 -329 0
-325 326 329 0
325 326 -329 0
325 -326 329 0
326 -392 -155 0
326 -392 -327 0
326 -327 -155 0
-326 327 155 0
-326 392 155 0
-326 392 327 0
-327 -328 -125 0
-327 328 125 0
327 328 -125 0
327 -328 125 0
328 360 -392 0
328 -360 392 0
-328 -360 -392 0
-328 360 392 0
329 -360 -392 0
329 -392 -125 0
329 -360 -125 0
-329 360 125 0
-329 392 125 0
-329 360 392 0
330 331 -333 0
330 -331 333 0
-330 -331 -333 0
-330 331 333 0
331 240 -332 0
331 -240 332 0
-331 -240 -332 0
-331 240 332 0
332 360 -123 0
332 -360 123 0
-332 -360 -123 0
-332 360 123 0
333 37 -334 0
333 -37 334 0
-333 -37 -334 0
-333 37 334 0
334 361 -7 0
334 -361 7 0
-334 -361 -7 0
-334 361 7 0
-335 336 338 340 345 0
-335 -336 -338 340 345 0
335 -340 0
335 336 -338 0
335 -345 0
335 -336 338 0
336 243 -337 0
336 -243 337 0
-336 -243 -337 0
-336 243 337 0
337 361 -241 0
337 -361 241 0
-337 -361 -241 0
-337 361 241 0
338 40 -339 0
338 -40 339 0
-338 -40 -339 0
-338 40 339 0
339 362 -8 0
339 -362 8 0
-339 -362 -8 0
-339 362 8 0
340 341 -343 0
340 -341 343 0
-340 -341 -343 0
-340 341 343 0
341 246 -342 0
341 -246 342 0
-341 -246 -342 0
-341 246 342 0
342 362 -244 0
342 -362 244 0
-342 -362 -244 0
-342 362 244 0
343 43 -344 0
343 -43 344 0
-343 -43 -344 0
-343 43 344 0
344 363 -9 0
344 -363 9 0
-344 -363 -9 0
-344 363 9 0
-345 168 346 349 351 0
-345 -168 346 -349 351 0
345 -346 0
345 168 -349 0
345 -351 0
345 -168 349 0
346 165 -347 0
346 -165 347 0
-346 -165 -347 0
-346 165 347 0
347 46 -348 0
347 -46 348 0
-347 -46 -348 0
-347 46 348 0
348 364 -10 0
348 -364 10 0
-348 -364 -10 0
-348 364 10 0
349 49 -350 0
349 -49 350 0
-349 -49 -350 0
-349 49 350 0
350 365 -11 0
350 -365 11 0
-350 -365 -11 0
-350 365 11 0
-351 -171 -352 354 0
-351 171 352 354 0
351 -354 0
351 -171 352 0
351 171 -352 0
352 52 -353 0
352 -52 353 0
-352 -52 -353 0
-352 52 353 0
353 366 -12 0
353 -366 12 0
-353 -366 -12 0
-353 366 12 0
-354 174 -201 355 -357 0
-354 -174 -201 -355 -357 0
-354 -174 201 -355 357 0
-354 174 201 355 357 0
354 174 -355 0
354 -174 355 0
354 -201 357 0
354 201 -357 0
355 55 -356 0
355 -55 356 0
-355 -55 -356 0
-355 55 356 0
356 367 -13 0
356 -367 13 0
-356 -367 -13 0
-356 367 13 0
357 82 -358 0
357 -82 358 0
-357 -82 -358 0
-357 82 358 0
358 376 -22 0
358 -376 22 0
-358 -376 -22 0
-358 376 22 0
-423 0
2 0

